3 100 1677
9 4 10 3 6 7 9 4 7 8
3 4 2
6 4 7
7 4 2 5
6 2
0 40.0 50.0 0.0 0.0 0 1236
2 45.0 68.0 90.0 10.0 850 1030 19 0 0 0 0 0 0 1 0 0 0
3 45.0 70.0 90.0 30.0 758 938 10 1 0 1 0 0 0 0 0 0 0
4 42.0 66.0 90.0 10.0 16 196 47 0 0 0 0 0 0 0 1 0 0
5 42.0 68.0 90.0 10.0 665 845 76 0 1 0 0 0 1 1 0 0 0
6 42.0 65.0 90.0 10.0 15 195 85 1 0 1 0 0 0 0 0 0 0
7 40.0 69.0 90.0 20.0 572 752 78 0 0 0 1 0 0 0 1 0 1
8 40.0 66.0 90.0 20.0 108 288 74 1 0 1 1 0 0 1 0 0 0
9 38.0 68.0 90.0 20.0 200 380 27 0 1 0 1 0 1 1 1 1 0
10 38.0 70.0 90.0 10.0 480 660 79 0 0 0 0 0 1 0 0 0 0
11 35.0 66.0 90.0 10.0 294 474 13 1 0 0 0 0 0 1 0 0 0
12 35.0 69.0 90.0 10.0 387 567 66 1 0 0 0 0 1 1 1 1 0
13 25.0 85.0 90.0 20.0 597 777 25 0 1 0 0 1 1 0 0 0 0
14 22.0 75.0 90.0 30.0 30 210 21 1 0 0 0 1 0 1 0 1 0
15 22.0 85.0 90.0 10.0 504 684 44 0 0 0 0 0 0 0 0 0 1
16 20.0 80.0 90.0 40.0 317 497 45 0 0 0 0 0 0 0 0 1 0
17 20.0 85.0 90.0 40.0 412 592 60 0 0 0 0 1 1 0 0 0 0
18 18.0 75.0 90.0 20.0 34 214 70 0 0 1 0 0 0 0 0 0 0
19 15.0 75.0 90.0 20.0 127 307 46 0 1 0 0 1 0 0 0 1 0
20 15.0 80.0 90.0 10.0 222 402 77 0 0 0 0 0 1 0 0 0 0
21 30.0 50.0 90.0 10.0 10 190 26 0 0 0 1 0 0 0 0 0 1
22 30.0 52.0 90.0 20.0 850 1030 61 0 1 1 0 0 0 0 1 0 0
23 28.0 52.0 90.0 20.0 758 938 21 0 1 0 1 0 0 1 0 0 0
24 28.0 55.0 90.0 10.0 665 845 89 1 0 0 0 0 1 0 0 0 0
25 25.0 50.0 90.0 10.0 15 195 81 0 0 1 0 0 0 0 0 0 0
26 25.0 52.0 90.0 40.0 107 287 35 0 0 0 0 1 1 0 1 0 0
27 25.0 55.0 90.0 10.0 572 752 7 0 0 0 1 0 0 0 0 0 0
28 23.0 52.0 90.0 10.0 199 379 63 0 0 0 0 0 1 0 0 0 0
29 23.0 55.0 90.0 20.0 480 660 14 1 0 0 0 0 1 0 0 0 1
30 20.0 50.0 90.0 10.0 292 472 30 1 0 0 0 0 0 0 0 0 0
31 20.0 55.0 90.0 10.0 387 567 97 0 0 1 0 0 0 0 0 0 0
32 10.0 35.0 90.0 20.0 129 309 69 0 0 0 0 1 0 1 0 0 0
33 10.0 40.0 90.0 30.0 31 211 77 0 0 0 0 0 0 0 1 0 0
34 8.0 40.0 90.0 40.0 33 213 1 0 0 1 0 0 1 0 0 0 1
35 8.0 45.0 90.0 20.0 694 874 86 0 0 0 0 0 0 0 0 1 0
36 5.0 35.0 90.0 10.0 224 404 24 1 0 0 0 0 0 0 0 0 1
37 5.0 45.0 90.0 10.0 601 781 76 0 0 1 0 0 0 0 0 0 0
38 2.0 40.0 90.0 20.0 319 499 57 0 0 0 0 0 1 0 0 0 0
39 0.0 40.0 90.0 30.0 411 591 43 0 0 1 0 1 1 0 0 1 0
40 0.0 45.0 90.0 20.0 506 686 41 0 0 1 0 0 1 1 0 0 1
41 35.0 30.0 90.0 10.0 203 383 21 0 1 0 0 0 0 0 0 1 0
42 35.0 32.0 90.0 10.0 111 291 30 0 0 0 1 0 0 1 0 0 0
43 33.0 32.0 90.0 20.0 19 199 10 0 0 0 0 0 0 0 1 0 0
44 33.0 35.0 90.0 10.0 16 196 68 0 0 0 0 0 0 0 1 0 0
45 32.0 30.0 90.0 10.0 296 476 22 0 0 1 0 0 1 1 0 0 1
46 30.0 30.0 90.0 10.0 481 661 31 1 0 0 0 0 0 0 1 0 0
47 30.0 32.0 90.0 30.0 389 569 73 0 0 0 0 0 0 1 0 0 0
48 30.0 35.0 90.0 10.0 947 1127 76 0 0 1 0 0 1 1 0 0 0
49 28.0 30.0 90.0 10.0 573 753 88 1 0 0 0 0 0 0 0 0 0
50 28.0 35.0 90.0 10.0 944 1124 71 0 0 0 1 0 0 0 0 0 0
51 26.0 32.0 90.0 10.0 758 938 65 0 0 0 1 0 0 0 0 0 0
52 25.0 30.0 90.0 10.0 666 846 5 0 0 0 0 0 1 1 1 0 0
53 25.0 35.0 90.0 10.0 851 1031 60 0 0 0 1 0 1 1 0 0 0
54 44.0 5.0 90.0 20.0 227 407 91 0 0 0 0 1 0 0 1 0 0
55 42.0 10.0 90.0 40.0 132 312 53 1 0 0 0 0 0 0 0 0 0
56 42.0 15.0 90.0 10.0 37 217 4 1 0 0 0 0 1 0 1 0 1
57 40.0 5.0 90.0 30.0 321 501 19 1 1 0 0 1 0 0 0 0 0
58 40.0 15.0 90.0 40.0 35 215 24 1 0 0 0 0 0 1 0 0 0
59 38.0 5.0 90.0 30.0 413 593 17 1 0 0 0 1 0 0 0 0 1
60 38.0 15.0 90.0 10.0 606 786 48 0 0 1 0 0 0 0 0 0 0
61 35.0 5.0 90.0 20.0 506 686 72 0 0 0 0 0 1 0 0 0 0
62 50.0 30.0 90.0 10.0 481 661 23 0 0 0 0 1 0 0 0 0 0
63 50.0 35.0 90.0 20.0 200 380 99 1 1 0 0 0 0 0 0 1 0
64 50.0 40.0 90.0 50.0 105 285 86 0 0 0 0 0 1 0 0 0 0
65 48.0 30.0 90.0 10.0 573 753 44 1 0 0 1 0 0 0 0 0 1
66 48.0 40.0 90.0 10.0 13 193 82 1 0 0 0 0 1 0 0 0 1
67 47.0 35.0 90.0 10.0 761 941 1 0 0 0 0 0 0 1 0 1 1
68 47.0 40.0 90.0 10.0 12 192 35 0 1 0 0 0 1 1 0 0 0
69 45.0 30.0 90.0 10.0 666 846 89 0 0 0 0 0 0 1 0 0 0
70 45.0 35.0 90.0 10.0 853 1033 50 1 0 1 0 0 0 0 0 0 0
71 95.0 30.0 90.0 30.0 332 512 81 0 0 1 0 0 0 0 0 0 1
72 95.0 35.0 90.0 20.0 237 417 22 0 1 1 0 0 0 1 1 0 0
73 53.0 30.0 90.0 10.0 388 568 44 0 0 0 1 0 1 0 0 0 1
74 92.0 30.0 90.0 10.0 425 605 7 0 0 0 0 0 1 0 0 0 1
75 53.0 35.0 90.0 50.0 293 473 43 1 1 0 0 0 1 0 0 0 1
76 45.0 65.0 90.0 20.0 943 1123 93 0 0 0 0 0 0 0 0 1 0
77 90.0 35.0 90.0 10.0 142 322 66 0 0 0 0 1 0 0 0 0 0
78 88.0 30.0 90.0 10.0 519 699 47 0 1 1 0 0 1 1 1 0 0
79 88.0 35.0 90.0 20.0 50 230 13 0 0 0 0 0 1 0 0 0 0
80 87.0 30.0 90.0 10.0 610 790 42 0 0 1 0 0 0 0 0 0 0
81 85.0 25.0 90.0 10.0 705 885 26 1 0 0 0 0 0 0 0 0 0
82 85.0 35.0 90.0 30.0 47 227 59 0 1 0 1 0 0 0 0 0 0
83 75.0 55.0 90.0 20.0 305 485 77 1 0 0 0 0 0 0 0 0 1
84 72.0 55.0 90.0 10.0 212 392 35 0 0 0 0 0 1 0 1 0 0
85 70.0 58.0 90.0 20.0 401 581 45 0 0 0 0 0 1 0 0 0 0
86 68.0 60.0 90.0 30.0 494 674 81 0 0 0 0 0 1 0 0 0 0
87 66.0 55.0 90.0 10.0 116 296 31 0 1 1 0 0 0 1 0 0 0
88 65.0 55.0 90.0 20.0 25 205 51 0 0 0 0 0 1 0 0 0 0
89 65.0 60.0 90.0 30.0 587 767 71 1 1 0 0 0 0 0 0 0 0
90 63.0 58.0 90.0 10.0 680 860 78 0 0 0 0 0 1 0 0 0 0
91 60.0 55.0 90.0 10.0 20 200 6 0 0 0 1 0 0 0 0 0 0
92 60.0 60.0 90.0 10.0 773 953 20 0 0 1 1 0 0 0 0 1 0
93 67.0 85.0 90.0 20.0 315 495 34 1 0 1 0 0 0 0 0 0 1
94 65.0 85.0 90.0 40.0 407 587 96 0 0 0 0 0 0 0 1 0 0
95 65.0 82.0 90.0 10.0 221 401 46 0 0 1 0 0 0 0 0 0 0
96 62.0 80.0 90.0 30.0 128 308 50 0 0 1 0 0 0 1 0 0 1
97 60.0 80.0 90.0 10.0 36 216 17 0 0 0 1 0 0 0 1 1 0
98 60.0 85.0 90.0 30.0 502 682 51 0 0 0 0 0 0 0 0 1 0
99 58.0 75.0 90.0 20.0 30 210 67 0 0 0 1 1 0 0 0 0 1
100 55.0 80.0 90.0 10.0 692 872 78 0 0 0 0 0 0 0 0 0 1
101 55.0 85.0 90.0 20.0 597 777 87 0 0 0 0 0 0 0 1 1 0